c "591083.clq"
p edge 100 384
e 1 5
e 1 6
e 1 10
e 1 14
e 1 15
e 1 30
e 1 32
e 1 48
e 1 50
e 1 52
e 1 76
e 2 5
e 2 7
e 2 8
e 2 9
e 2 11
e 2 12
e 2 29
e 2 32
e 2 34
e 2 35
e 2 57
e 2 62
e 2 80
e 3 5
e 3 6
e 3 11
e 3 15
e 3 20
e 3 28
e 3 41
e 3 54
e 3 55
e 3 59
e 3 72
e 3 88
e 3 96
e 4 5
e 4 6
e 4 7
e 4 8
e 4 9
e 4 23
e 4 26
e 4 27
e 4 28
e 4 36
e 4 46
e 4 59
e 4 61
e 5 6
e 5 7
e 5 9
e 5 10
e 5 11
e 5 13
e 5 14
e 5 15
e 5 18
e 5 19
e 5 21
e 5 22
e 5 23
e 5 24
e 5 25
e 5 26
e 5 29
e 5 31
e 5 36
e 5 40
e 5 45
e 5 47
e 5 48
e 5 55
e 5 56
e 5 58
e 5 66
e 5 67
e 5 69
e 5 70
e 5 74
e 5 76
e 5 81
e 5 82
e 5 84
e 5 87
e 5 96
e 5 98
e 5 99
e 6 7
e 6 8
e 6 9
e 6 12
e 6 13
e 6 16
e 6 18
e 6 20
e 6 28
e 6 38
e 6 43
e 6 58
e 6 63
e 6 64
e 6 89
e 7 8
e 7 14
e 7 21
e 7 39
e 7 43
e 7 45
e 7 46
e 7 47
e 7 75
e 7 76
e 7 78
e 8 10
e 8 11
e 8 22
e 8 28
e 8 31
e 8 32
e 8 33
e 8 41
e 8 42
e 8 44
e 8 49
e 8 54
e 8 55
e 8 57
e 8 62
e 8 82
e 8 84
e 8 85
e 8 91
e 9 10
e 9 12
e 9 13
e 9 17
e 9 18
e 9 23
e 9 33
e 9 38
e 9 50
e 9 67
e 9 89
e 10 13
e 10 18
e 10 26
e 10 39
e 10 40
e 10 45
e 10 48
e 10 51
e 10 90
e 10 92
e 10 98
e 11 12
e 11 16
e 11 17
e 11 20
e 11 23
e 11 24
e 11 25
e 11 37
e 11 43
e 11 47
e 11 56
e 11 93
e 12 14
e 12 19
e 12 27
e 12 31
e 12 52
e 12 65
e 12 68
e 12 83
e 12 86
e 13 15
e 13 16
e 13 17
e 13 19
e 13 20
e 13 27
e 13 32
e 13 35
e 13 36
e 13 49
e 13 50
e 13 53
e 13 65
e 13 71
e 13 73
e 13 75
e 13 99
e 14 24
e 14 25
e 14 41
e 14 51
e 14 53
e 14 64
e 14 72
e 14 75
e 14 81
e 15 16
e 15 19
e 15 33
e 15 91
e 16 17
e 16 21
e 16 61
e 16 72
e 16 73
e 16 79
e 16 87
e 16 99
e 17 24
e 17 48
e 17 57
e 17 83
e 18 22
e 18 25
e 18 27
e 18 30
e 18 31
e 18 37
e 18 55
e 18 56
e 18 59
e 18 61
e 18 68
e 18 71
e 18 78
e 18 95
e 18 97
e 18 100
e 19 21
e 19 22
e 19 26
e 19 30
e 19 34
e 19 44
e 19 45
e 19 67
e 19 88
e 19 96
e 20 37
e 20 70
e 20 82
e 21 40
e 21 47
e 21 60
e 21 89
e 21 93
e 22 64
e 22 69
e 22 73
e 22 81
e 22 88
e 23 35
e 23 39
e 23 42
e 23 44
e 23 60
e 23 73
e 23 83
e 23 85
e 23 95
e 23 100
e 24 29
e 24 30
e 24 40
e 24 42
e 24 44
e 24 50
e 24 89
e 24 97
e 25 36
e 25 53
e 25 58
e 25 77
e 25 94
e 26 34
e 27 29
e 27 38
e 27 43
e 27 62
e 27 90
e 28 46
e 28 53
e 28 94
e 29 51
e 29 54
e 29 58
e 29 75
e 29 76
e 29 77
e 29 86
e 29 98
e 30 33
e 30 35
e 30 38
e 30 74
e 30 86
e 30 92
e 31 49
e 31 87
e 32 42
e 32 57
e 32 61
e 33 34
e 33 60
e 33 80
e 33 88
e 34 41
e 34 62
e 34 64
e 34 65
e 34 69
e 34 77
e 34 78
e 34 87
e 35 37
e 35 59
e 35 66
e 35 69
e 35 83
e 36 68
e 36 85
e 36 94
e 36 100
e 37 72
e 38 39
e 38 46
e 39 51
e 39 52
e 40 63
e 41 49
e 41 54
e 41 66
e 41 93
e 41 98
e 42 80
e 42 84
e 48 60
e 48 95
e 49 52
e 50 78
e 51 90
e 52 56
e 52 79
e 53 79
e 53 82
e 54 63
e 54 97
e 56 65
e 56 92
e 56 93
e 58 63
e 58 66
e 58 70
e 59 97
e 60 71
e 60 74
e 60 91
e 60 94
e 61 80
e 62 68
e 63 91
e 66 67
e 66 95
e 67 70
e 68 74
e 68 90
e 70 71
e 72 77
e 74 96
e 74 100
e 75 84
e 77 79
e 77 81
e 77 86
e 80 85
e 83 99
e 84 92
